c This is QMaxSAT 2017 based on 14.07
c This is Glucose 3.0
c This is MiniSat 2.2.0
c WARNING: for repeatability, setting FPU to use double precision
c card = mrwto, comp = 0, pmodel = 0, narr = 16, mct = 152, verb = 0
cr firstCPXsol 0 0 0
c top = 158709225
c |  Number of variables:    55778                                            |
c |  Number of clauses:      8711977                                          |
c |  Weight of hard clauses: 158709225                                        |
c |  Number of soft clauses: 439712                                           |
c |  Number of unit soft clauses: 0                                           |
c |  Maximum Cardinality (by unit): 3195537824   (0           )               |
c last restart ## conflicts  :  0 12535 
o 560173 | cpuTime 1.32563 s
c Sum of weights = 199721114
c A number of soft clauses remained = 27482
c MRWTO encoding for Pseudo-Boolean Constraints
c sizeMax=65536
c No.0 Divisor=15	generated by pow1
c No.1 Divisor=14	generated by pow1
c No.2 Divisor=14	generated by pow1
c No.3 Divisor=15	generated by pow1
c No.4 Divisor=15	generated by pow1
c p0= 15	p1= 14	p2= 14	p3= 15	p4= 15	
c number of digits = 6
c linkingVar[0].size = 15, linkingVar[1].size = 14, linkingVar[2].size = 14, linkingVar[3].size = 15, linkingVar[4].size = 13, linkingVar[5].size = 1, 
c Pseudo-Boolean Constraints: 1154215 variables and 15004076 clauses
c Sum of weights = 199721114
c A number of soft clauses remained = 27482
c MRWTO encoding for Pseudo-Boolean Constraints
c sizeMax=65536
c No.0 Divisor=15	generated by pow1
c No.1 Divisor=14	generated by pow1
c No.2 Divisor=14	generated by pow1
c No.3 Divisor=15	generated by pow1
c No.4 Divisor=15	generated by pow1
c p0= 15	p1= 14	p2= 14	p3= 15	p4= 15	
c number of digits = 6
c linkingVar[0].size = 15, linkingVar[1].size = 14, linkingVar[2].size = 14, linkingVar[3].size = 15, linkingVar[4].size = 13, linkingVar[5].size = 1, 
c Pseudo-Boolean Constraints: 1154215 variables and 15004076 clauses
c Sum of weights = 199721114
c A number of soft clauses remained = 27482
c MRWTO encoding for Pseudo-Boolean Constraints
c sizeMax=65536
c No.0 Divisor=15	generated by pow1
c No.1 Divisor=14	generated by pow1
c No.2 Divisor=14	generated by pow1
c No.3 Divisor=15	generated by pow1
c No.4 Divisor=15	generated by pow1
c p0= 15	p1= 14	p2= 14	p3= 15	p4= 15	
c number of digits = 6
c linkingVar[0].size = 15, linkingVar[1].size = 14, linkingVar[2].size = 14, linkingVar[3].size = 15, linkingVar[4].size = 13, linkingVar[5].size = 1, 
c Pseudo-Boolean Constraints: 1154215 variables and 15004076 clauses
c Sum of weights = 199721114
c A number of soft clauses remained = 27482
c MRWTO encoding for Pseudo-Boolean Constraints
c sizeMax=65536
c No.0 Divisor=15	generated by pow1
c No.1 Divisor=14	generated by pow1
c No.2 Divisor=14	generated by pow1
c No.3 Divisor=15	generated by pow1
c No.4 Divisor=15	generated by pow1
c p0= 15	p1= 14	p2= 14	p3= 15	p4= 15	
c number of digits = 6
c linkingVar[0].size = 15, linkingVar[1].size = 14, linkingVar[2].size = 14, linkingVar[3].size = 15, linkingVar[4].size = 13, linkingVar[5].size = 1, 
c Pseudo-Boolean Constraints: 1154215 variables and 15004076 clauses
c Sum of weights = 199721114
c A number of soft clauses remained = 27482
c MRWTO encoding for Pseudo-Boolean Constraints
c sizeMax=65536
c No.0 Divisor=15	generated by pow1
c No.1 Divisor=14	generated by pow1
c No.2 Divisor=14	generated by pow1
c No.3 Divisor=15	generated by pow1
c No.4 Divisor=15	generated by pow1
c p0= 15	p1= 14	p2= 14	p3= 15	p4= 15	
c number of digits = 6
c linkingVar[0].size = 15, linkingVar[1].size = 14, linkingVar[2].size = 14, linkingVar[3].size = 15, linkingVar[4].size = 13, linkingVar[5].size = 1, 
c Pseudo-Boolean Constraints: 1154215 variables and 15004076 clauses
c Sum of weights = 199721114
c A number of soft clauses remained = 27482
c MRWTO encoding for Pseudo-Boolean Constraints
c sizeMax=65536
c No.0 Divisor=15	generated by pow1
c No.1 Divisor=14	generated by pow1
c No.2 Divisor=14	generated by pow1
c No.3 Divisor=15	generated by pow1
c No.4 Divisor=15	generated by pow1
c p0= 15	p1= 14	p2= 14	p3= 15	p4= 15	
c number of digits = 6
c linkingVar[0].size = 15, linkingVar[1].size = 14, linkingVar[2].size = 14, linkingVar[3].size = 15, linkingVar[4].size = 13, linkingVar[5].size = 1, 
c Pseudo-Boolean Constraints: 1154215 variables and 15004076 clauses
c Sum of weights = 199721114
c A number of soft clauses remained = 27482
c MRWTO encoding for Pseudo-Boolean Constraints
c sizeMax=65536
c No.0 Divisor=15	generated by pow1
c No.1 Divisor=14	generated by pow1
c No.2 Divisor=14	generated by pow1
c No.3 Divisor=15	generated by pow1
c No.4 Divisor=15	generated by pow1
c p0= 15	p1= 14	p2= 14	p3= 15	p4= 15	
c number of digits = 6
c linkingVar[0].size = 15, linkingVar[1].size = 14, linkingVar[2].size = 14, linkingVar[3].size = 15, linkingVar[4].size = 13, linkingVar[5].size = 1, 
c Pseudo-Boolean Constraints: 1154215 variables and 15004076 clauses
c Sum of weights = 199721114
c A number of soft clauses remained = 27482
c MRWTO encoding for Pseudo-Boolean Constraints
c sizeMax=65536
c No.0 Divisor=15	generated by pow1
c No.1 Divisor=14	generated by pow1
c No.2 Divisor=14	generated by pow1
c No.3 Divisor=15	generated by pow1
c No.4 Divisor=15	generated by pow1
c p0= 15	p1= 14	p2= 14	p3= 15	p4= 15	
c number of digits = 6
c linkingVar[0].size = 15, linkingVar[1].size = 14, linkingVar[2].size = 14, linkingVar[3].size = 15, linkingVar[4].size = 13, linkingVar[5].size = 1, 
c Pseudo-Boolean Constraints: 1154215 variables and 15004076 clauses
c Sum of weights = 199721114
c A number of soft clauses remained = 27482
c MRWTO encoding for Pseudo-Boolean Constraints
c sizeMax=65536
c No.0 Divisor=15	generated by pow1
c No.1 Divisor=14	generated by pow1
c No.2 Divisor=14	generated by pow1
c No.3 Divisor=15	generated by pow1
c No.4 Divisor=15	generated by pow1
c p0= 15	p1= 14	p2= 14	p3= 15	p4= 15	
c number of digits = 6
c linkingVar[0].size = 15, linkingVar[1].size = 14, linkingVar[2].size = 14, linkingVar[3].size = 15, linkingVar[4].size = 13, linkingVar[5].size = 1, 
c Pseudo-Boolean Constraints: 1154215 variables and 15004076 clauses
c Sum of weights = 199721114
c A number of soft clauses remained = 27482
c MRWTO encoding for Pseudo-Boolean Constraints
c sizeMax=65536
c No.0 Divisor=15	generated by pow1
c No.1 Divisor=14	generated by pow1
c No.2 Divisor=14	generated by pow1
c No.3 Divisor=15	generated by pow1
c No.4 Divisor=15	generated by pow1
c p0= 15	p1= 14	p2= 14	p3= 15	p4= 15	
c number of digits = 6
c linkingVar[0].size = 15, linkingVar[1].size = 14, linkingVar[2].size = 14, linkingVar[3].size = 15, linkingVar[4].size = 13, linkingVar[5].size = 1, 
c Pseudo-Boolean Constraints: 1154215 variables and 15004076 clauses
c Sum of weights = 199721114
c A number of soft clauses remained = 27482
c MRWTO encoding for Pseudo-Boolean Constraints
c sizeMax=65536
c No.0 Divisor=15	generated by pow1
c No.1 Divisor=14	generated by pow1
c No.2 Divisor=14	generated by pow1
c No.3 Divisor=15	generated by pow1
c No.4 Divisor=15	generated by pow1
c p0= 15	p1= 14	p2= 14	p3= 15	p4= 15	
c number of digits = 6
c linkingVar[0].size = 15, linkingVar[1].size = 14, linkingVar[2].size = 14, linkingVar[3].size = 15, linkingVar[4].size = 13, linkingVar[5].size = 1, 
c Pseudo-Boolean Constraints: 1154215 variables and 15004076 clauses
c Sum of weights = 199721114
c A number of soft clauses remained = 27482
c MRWTO encoding for Pseudo-Boolean Constraints
c sizeMax=65536
c No.0 Divisor=15	generated by pow1
c No.1 Divisor=14	generated by pow1
c No.2 Divisor=14	generated by pow1
c No.3 Divisor=15	generated by pow1
c No.4 Divisor=15	generated by pow1
c p0= 15	p1= 14	p2= 14	p3= 15	p4= 15	
c number of digits = 6
c linkingVar[0].size = 15, linkingVar[1].size = 14, linkingVar[2].size = 14, linkingVar[3].size = 15, linkingVar[4].size = 13, linkingVar[5].size = 1, 
c Pseudo-Boolean Constraints: 1154215 variables and 15004076 clauses
c Sum of weights = 199721114
c A number of soft clauses remained = 27482
c MRWTO encoding for Pseudo-Boolean Constraints
c sizeMax=65536
c No.0 Divisor=15	generated by pow1
c No.1 Divisor=14	generated by pow1
c No.2 Divisor=14	generated by pow1
c No.3 Divisor=15	generated by pow1
c No.4 Divisor=15	generated by pow1
c p0= 15	p1= 14	p2= 14	p3= 15	p4= 15	
c number of digits = 6
c linkingVar[0].size = 15, linkingVar[1].size = 14, linkingVar[2].size = 14, linkingVar[3].size = 15, linkingVar[4].size = 13, linkingVar[5].size = 1, 
c Pseudo-Boolean Constraints: 1154215 variables and 15004076 clauses
c Sum of weights = 199721114
c A number of soft clauses remained = 27482
c MRWTO encoding for Pseudo-Boolean Constraints
c sizeMax=65536
c No.0 Divisor=15	generated by pow1
c No.1 Divisor=14	generated by pow1
c No.2 Divisor=14	generated by pow1
c No.3 Divisor=15	generated by pow1
c No.4 Divisor=15	generated by pow1
c p0= 15	p1= 14	p2= 14	p3= 15	p4= 15	
c number of digits = 6
c linkingVar[0].size = 15, linkingVar[1].size = 14, linkingVar[2].size = 14, linkingVar[3].size = 15, linkingVar[4].size = 13, linkingVar[5].size = 1, 
c Pseudo-Boolean Constraints: 1154215 variables and 15004076 clauses
c Sum of weights = 199721114
c A number of soft clauses remained = 27482
c MRWTO encoding for Pseudo-Boolean Constraints
c sizeMax=65536
c No.0 Divisor=15	generated by pow1
c No.1 Divisor=14	generated by pow1
c No.2 Divisor=14	generated by pow1
c No.3 Divisor=15	generated by pow1
c No.4 Divisor=15	generated by pow1
c p0= 15	p1= 14	p2= 14	p3= 15	p4= 15	
c number of digits = 6
c linkingVar[0].size = 15, linkingVar[1].size = 14, linkingVar[2].size = 14, linkingVar[3].size = 15, linkingVar[4].size = 13, linkingVar[5].size = 1, 
c Pseudo-Boolean Constraints: 1154215 variables and 15004076 clauses
c Sum of weights = 199721114
c A number of soft clauses remained = 27482
c MRWTO encoding for Pseudo-Boolean Constraints
c sizeMax=65536
c No.0 Divisor=15	generated by pow1
c No.1 Divisor=14	generated by pow1
c No.2 Divisor=14	generated by pow1
c No.3 Divisor=15	generated by pow1
c No.4 Divisor=15	generated by pow1
c p0= 15	p1= 14	p2= 14	p3= 15	p4= 15	
c number of digits = 6
c linkingVar[0].size = 15, linkingVar[1].size = 14, linkingVar[2].size = 14, linkingVar[3].size = 15, linkingVar[4].size = 13, linkingVar[5].size = 1, 
c Pseudo-Boolean Constraints: 1154215 variables and 15004076 clauses
c last restart ## conflicts  :  569 1044779 
o 186879 | cpuTime 919.159 s
c last restart ## conflicts  :  1094 205546 
o 152925 | cpuTime 1465.44 s
s UNKNOWN
c Search is stopped by a limit (maybe time-limit)
cr positiVarArr: [ | 69(1->54) | 295(1->113) | 407(1->58) | 602(1->86) | 785(1->102) | 988(1->138) | 1162(1->145) | 1219(1->35) | 1379(1->28) | 1548(1->30) | 1726(1->41) | 1918(1->66) | 2130(1->111) | 2289(1->103) | 2489(1->136) | 2536(1->16) | 2725(2->38) | 2853(3->1) | 3101(4->80) | 3179(5->1) | 3378(6->23) | 3615(7->93) | 3806(8->117) | 3912(9->56) | 4139(10->116) | 4330(11->140) | 4344(12->1) | 4650(13->126) | 4815(14->124) | 4887(15->29) | 5025(16->1) | 5232(17->40) | 5412(18->53) | 5660(19->134) | 5714(20->21) | 5872(21->12) | 6104(22->77) | 6221(23->27) | 6509(24->148) | 6565(25->37) | 6805(26->110) | 6907(27->45) | 7032(28->3) | 7245(29->49) | 7351(30->1) | 7645(31->115) | 7722(32->25) | 7896(33->32) | 8023(34->1) | 8231(35->33) | 8485(36->120) | 8639(37->107) | 8795(38->96) | 8870(39->4) | 9042(40->9) | 9306(41->106) | 9462(42->95) | 9659(43->125) | 9694(44->1) | 9866(45->1) | 10054(46->19) | 10296(47->94) | 10436(48->67) | 10550(49->14) | 10794(50->91) | 10866(51->1) | 11129(52->92) | 11275(53->71) | 11472(54->101) | 11620(55->82) | 11716(56->11) | 11931(57->59) | 12065(58->26) | 12250(59->44) | 12505(60->132) | 12579(61->39) | 12701(62->1) | 12952(63->78) | 13187(64->146) | 13194(65->1) | 13459(66->84) | 13647(67->105) | 13788(68->79) | 14026(69->150) | 14133(70->90) | 14324(71->114) | 14379(72->2) | 14591(73->47) | 14852(74->141) | 14929(75->51) | 15095(76->50) | 15335(77->123) | 15434(78->55) | 15654(79->108) | 15782(80->69) | 15969(81->89) | 16130(82->83) | 16274(83->60) | 16510(84->129) | 16687(85->139) | 16721(86->6) | 16889(87->7) | 17106(88->57) | 17328(89->112) | 17482(90->99) | 17596(91->46) | 17785(92->68) | 17936(93->52) | 18125(94->74) | 18367(95->149) | 18455(96->70) | 18613(97->61) | 18794(98->75) | 18922(99->36) | 19150(100->97) | 19308(101->88) | 19395(102->8) | 19617(103->63) | 19819(104->98) | 19903(105->15) | 20119(106->64) | 20357(107->135) | 20384(108->1) | 20641(109->85) | 20832(110->109) | 20994(111->104) | 21122(112->65) | 21296(113->72) | 21524(114->133) | 21548(115->1) | 21801(116->76) | 21905(117->13) | 22196(118->137) | 22307(119->81) | 22390(120->1) | 22707(121->147) | 22848(122->121) | 22994(123->100) | 23134(124->73) | 23347(125->119) | 23413(126->18) | 23684(127->122) | 23734(128->5) | 23983(129->87) | 24125(130->62) | 24231(131->1) | 24417(132->20) | 24581(133->17) | 24774(134->43) | 25042(135->144) | 25113(136->48) | 25266(137->34) | 25423(138->24) | 25709(139->143) | 25864(140->131) | 25942(141->42) | 26185(142->118) | 26376(143->142) | 26552(144->151) | 26590(145->22) | 26766(146->31) | 27032(147->130) | 27079(148->10) | 27225(149->1) | 27530(150->127) | 27722(151->152) | 27865(152->128) | ]
cr the 1-th chain: [ 1->54->101->88->57->59->44->1 ] (#non-depot=6) {#cumul.=7}
cr the 2-th chain: [ 1->113->72->2->38->96->70->90->99->36->120->1 ] (#non-depot=10) {#cumul.=17}
cr the 3-th chain: [ 1->58->26->110->109->85->139->143->142->118->137->34->1 ] (#non-depot=11) {#cumul.=28}
cr the 4-th chain: [ 1->86->6->23->27->45->1 ] (#non-depot=5) {#cumul.=33}
cr the 5-th chain: [ 1->102->8->117->13->126->18->53->71->114->133->17->40->9->56->11->140->131->1 ] (#non-depot=17) {#cumul.=50}
cr the 6-th chain: [ 1->138->24->148->10->116->76->50->91->46->19->134->43->125->119->81->89->112->65->1 ] (#non-depot=18) {#cumul.=68}
cr the 7-th chain: [ 1->145->22->77->123->100->97->61->39->4->80->69->150->127->122->121->147->130->62->1 ] (#non-depot=18) {#cumul.=86}
cr the 8-th chain: [ 1->35->33->32->25->37->107->135->144->151->152->128->5->1 ] (#non-depot=12) {#cumul.=98}
cr the 9-th chain: [ 1->28->3->1 ] (#non-depot=2) {#cumul.=100}
cr the 10-th chain: [ 1->30->1 ] (#non-depot=1) {#cumul.=101}
cr the 11-th chain: [ 1->41->106->64->146->31->115->1 ] (#non-depot=6) {#cumul.=107}
cr the 12-th chain: [ 1->66->84->129->87->7->93->52->92->68->79->108->1 ] (#non-depot=11) {#cumul.=118}
cr the 13-th chain: [ 1->111->104->98->75->51->1 ] (#non-depot=5) {#cumul.=123}
cr the 14-th chain: [ 1->103->63->78->55->82->83->60->132->20->21->12->1 ] (#non-depot=11) {#cumul.=134}
cr the 15-th chain: [ 1->136->48->67->105->15->29->49->14->124->73->47->94->74->141->42->95->149->1 ] (#non-depot=17) {#cumul.=151}
cr the 16-th chain: [ 1->16->1 ] (#non-depot=1) {#cumul.=152}
c Latest Answer = 0 by 3 loops
c restarts              : 1271
c conflicts             : 217410         (60 /sec)
c decisions             : 149340724      (0.00 % random) (41316 /sec)
c propagations          : 24337860203    (6733270 /sec)
c conflict literals     : 19504676       (6.98 % deleted)
c Memory used           : 19291.00 MB
c CPU time              : 3614.57 s
